0 154 12 177 150 80 68 129 121 29 24 163 134 54 0 0 28 184 76 196 77 158 3 79 78 34 169 25 55 130 0 0 111 50 102 157 33 81 164 135 120 51 0 0 176 1 188 65 71 161 103 9 185 116 165 109 0 0 27 132 69 162 101 30 32 131 160 128 20 66 136 35 0 0 167 127 190 31 189 10 108 126 63 181 122 0 0 146 52 7 182 19 107 175 11 159 148 88 138 195 0 0 153 106 48 168 47 36 143 49 64 123 62 90 70 0 0 156 89 18 83 199 125 45 174 8 114 82 194 0 0 147 61 16 86 113 173 84 5 118 60 0 0 112 183 94 96 99 93 85 17 46 124 166 0 0 6 104 59 151 92 98 37 100 193 91 191 141 44 119 144 0 0 13 117 95 97 87 172 42 142 192 14 140 38 43 15 57 137 0 0 152 58 2 178 115 145 41 22 133 74 171 73 40 0 0 53 21 72 75 23 186 56 197 198 180 105 0 0 26 149 179 170 67 39 187 139 4 155 110 0 
